p cnf 596 1590
e 1 2 3 4 5 6 7 8 9 10 11 12 13 0
a 14 15 16 17 18 19 20 21 22 23 24 25 26 0
e 27 28 29 30 31 32 33 34 35 36 37 38 39 0
a 40 41 42 43 44 45 46 47 48 49 50 51 52 0
e 53 54 55 56 57 58 59 60 61 62 63 64 65 0
a 66 67 68 69 70 71 72 73 74 75 76 77 78 0
e 79 80 81 82 83 84 85 86 87 88 89 90 91 0
a 92 93 94 95 96 97 98 99 100 101 102 103 104 0
e 105 106 107 108 109 110 111 112 113 114 115 116 117 0
a 118 119 120 121 122 123 124 125 126 127 128 129 130 0
e 131 132 133 134 135 136 137 138 139 140 141 142 143 0
a 144 145 146 147 148 149 150 151 152 153 154 155 156 0
e 157 158 159 160 161 162 163 164 165 166 167 168 169 449 571 178 226 241 286 344 381 559 225 300 366 562 188 244 550 431 443 524 534 220 250 542 573 257 392 527 518 578 206 252 379 511 228 280 565 194 292 303 362 483 236 245 276 509 529 458 297 397 425 253 318 353 594 343 395 505 520 196 277 442 514 455 472 223 371 403 584 199 412 384 502 537 203 558 321 580 240 540 457 174 432 467 249 528 492 554 402 193 378 423 293 340 456 173 205 389 471 590 212 295 426 299 357 184 190 222 515 544 409 500 503 436 463 262 316 306 459 207 430 585 251 400 405 438 211 399 532 475 266 317 468 507 182 237 547 346 310 390 568 593 200 281 454 551 448 552 348 373 401 301 360 469 516 256 560 418 419 487 488 181 272 531 386 450 553 567 185 566 229 319 327 491 482 519 273 325 356 361 260 474 437 197 296 364 407 338 499 322 445 383 421 337 462 477 189 204 315 481 217 279 404 522 192 242 415 380 398 496 367 517 564 267 354 441 484 497 513 290 451 536 224 264 175 195 334 396 413 414 595 289 394 581 422 570 179 328 382 202 233 248 271 439 493 587 596 238 486 510 218 345 377 452 538 557 574 219 313 365 230 305 572 575 208 440 548 561 543 385 498 506 307 473 466 216 332 410 586 198 288 490 501 372 187 191 254 311 298 408 591 209 302 323 577 176 435 347 434 275 339 485 342 416 427 374 388 393 446 234 261 533 569 352 508 489 495 539 541 350 369 583 232 259 294 309 215 582 270 563 186 258 406 411 428 588 210 370 336 363 171 243 326 391 424 265 308 329 358 235 549 535 214 247 460 330 512 221 263 287 341 546 589 282 523 320 375 530 324 333 387 576 227 268 274 291 331 579 246 368 417 504 592 170 304 479 556 283 312 478 177 355 180 453 465 213 461 476 183 255 359 376 420 526 351 480 335 444 284 172 201 269 278 447 464 525 545 349 494 239 285 314 429 433 521 555 231 470 0
178 0
175 0
176 0
177 0
173 0
174 0
170 0
171 0
172 0
-157 179 0
157 -179 0
-158 180 0
158 -180 0
-159 181 0
159 -181 0
-160 182 0
160 -182 0
-161 183 0
161 -183 0
-162 184 0
162 -184 0
-163 185 0
163 -185 0
-164 186 0
164 -186 0
-165 187 0
165 -187 0
-166 188 0
166 -188 0
-167 189 0
167 -189 0
-168 190 0
168 -190 0
-169 191 0
169 -191 0
-1 27 0
-2 28 0
-3 29 0
-4 30 0
-5 31 0
-6 32 0
-7 33 0
-8 34 0
-9 35 0
-10 36 0
-11 37 0
-12 38 0
-13 39 0
-27 53 0
-28 54 0
-29 55 0
-30 56 0
-31 57 0
-32 58 0
-33 59 0
-34 60 0
-35 61 0
-36 62 0
-37 63 0
-38 64 0
-39 65 0
-53 79 0
-54 80 0
-55 81 0
-56 82 0
-57 83 0
-58 84 0
-59 85 0
-60 86 0
-61 87 0
-62 88 0
-63 89 0
-64 90 0
-65 91 0
-79 105 0
-80 106 0
-81 107 0
-82 108 0
-83 109 0
-84 110 0
-85 111 0
-86 112 0
-87 113 0
-88 114 0
-89 115 0
-90 116 0
-91 117 0
-105 131 0
-106 132 0
-107 133 0
-108 134 0
-109 135 0
-110 136 0
-111 137 0
-112 138 0
-113 139 0
-114 140 0
-115 141 0
-116 142 0
-117 143 0
-131 157 0
-132 158 0
-133 159 0
-134 160 0
-135 161 0
-136 162 0
-137 163 0
-138 164 0
-139 165 0
-140 166 0
-141 167 0
-142 168 0
-143 169 0
192 -1 0
-192 1 0
-192 193 0
193 -2 0
192 -193 2 0
-192 194 -2 0
-194 2 0
192 -194 0
-193 195 0
195 -3 0
193 -195 3 0
-194 196 0
-193 196 -3 0
194 -196 3 0
193 -196 0
-195 197 0
197 -4 0
195 -197 4 0
-196 198 0
-195 198 -4 0
196 -198 4 0
195 -198 0
-197 199 0
199 -5 0
197 -199 5 0
-198 200 0
-197 200 -5 0
198 -200 5 0
197 -200 0
-199 201 0
201 -6 0
199 -201 6 0
-200 202 0
-199 202 -6 0
200 -202 6 0
199 -202 0
-201 203 0
203 -7 0
201 -203 7 0
-202 204 0
-201 204 -7 0
202 -204 7 0
201 -204 0
-203 205 0
205 -8 0
203 -205 8 0
-204 206 0
-203 206 -8 0
204 -206 8 0
203 -206 0
-205 207 0
207 -9 0
205 -207 9 0
-206 208 0
-205 208 -9 0
206 -208 9 0
205 -208 0
-207 209 0
209 -10 0
207 -209 10 0
-208 210 0
-207 210 -10 0
208 -210 10 0
207 -210 0
-209 211 0
211 -11 0
209 -211 11 0
-210 212 0
-209 212 -11 0
210 -212 11 0
209 -212 0
-211 213 0
213 -12 0
211 -213 12 0
-212 214 0
-211 214 -12 0
212 -214 12 0
211 -214 0
-213 215 0
215 -13 0
213 -215 13 0
-214 216 0
-213 216 -13 0
214 -216 13 0
213 -216 0
-217 215 0
-217 -216 0
218 1 -27 0
-218 -1 0
-218 27 0
-218 219 0
219 2 -28 0
218 -219 -2 0
218 -219 28 0
-218 220 2 -28 0
-220 -2 0
-220 28 0
218 -220 0
-219 221 0
221 3 -29 0
219 -221 -3 0
219 -221 29 0
-220 222 0
-219 222 3 -29 0
220 -222 -3 0
220 -222 29 0
219 -222 0
-221 223 0
223 4 -30 0
221 -223 -4 0
221 -223 30 0
-222 224 0
-221 224 4 -30 0
222 -224 -4 0
222 -224 30 0
221 -224 0
-223 225 0
225 5 -31 0
223 -225 -5 0
223 -225 31 0
-224 226 0
-223 226 5 -31 0
224 -226 -5 0
224 -226 31 0
223 -226 0
-225 227 0
227 6 -32 0
225 -227 -6 0
225 -227 32 0
-226 228 0
-225 228 6 -32 0
226 -228 -6 0
226 -228 32 0
225 -228 0
-227 229 0
229 7 -33 0
227 -229 -7 0
227 -229 33 0
-228 230 0
-227 230 7 -33 0
228 -230 -7 0
228 -230 33 0
227 -230 0
-229 231 0
231 8 -34 0
229 -231 -8 0
229 -231 34 0
-230 232 0
-229 232 8 -34 0
230 -232 -8 0
230 -232 34 0
229 -232 0
-231 233 0
233 9 -35 0
231 -233 -9 0
231 -233 35 0
-232 234 0
-231 234 9 -35 0
232 -234 -9 0
232 -234 35 0
231 -234 0
-233 235 0
235 10 -36 0
233 -235 -10 0
233 -235 36 0
-234 236 0
-233 236 10 -36 0
234 -236 -10 0
234 -236 36 0
233 -236 0
-235 237 0
237 11 -37 0
235 -237 -11 0
235 -237 37 0
-236 238 0
-235 238 11 -37 0
236 -238 -11 0
236 -238 37 0
235 -238 0
-237 239 0
239 12 -38 0
237 -239 -12 0
237 -239 38 0
-238 240 0
-237 240 12 -38 0
238 -240 -12 0
238 -240 38 0
237 -240 0
-239 241 0
241 13 -39 0
239 -241 -13 0
239 -241 39 0
-240 242 0
-239 242 13 -39 0
240 -242 -13 0
240 -242 39 0
239 -242 0
-217 241 0
-217 -242 0
243 27 -53 0
-243 -27 0
-243 53 0
-243 244 0
244 28 -54 0
243 -244 -28 0
243 -244 54 0
-243 245 28 -54 0
-245 -28 0
-245 54 0
243 -245 0
-244 246 0
246 29 -55 0
244 -246 -29 0
244 -246 55 0
-245 247 0
-244 247 29 -55 0
245 -247 -29 0
245 -247 55 0
244 -247 0
-246 248 0
248 30 -56 0
246 -248 -30 0
246 -248 56 0
-247 249 0
-246 249 30 -56 0
247 -249 -30 0
247 -249 56 0
246 -249 0
-248 250 0
250 31 -57 0
248 -250 -31 0
248 -250 57 0
-249 251 0
-248 251 31 -57 0
249 -251 -31 0
249 -251 57 0
248 -251 0
-250 252 0
252 32 -58 0
250 -252 -32 0
250 -252 58 0
-251 253 0
-250 253 32 -58 0
251 -253 -32 0
251 -253 58 0
250 -253 0
-252 254 0
254 33 -59 0
252 -254 -33 0
252 -254 59 0
-253 255 0
-252 255 33 -59 0
253 -255 -33 0
253 -255 59 0
252 -255 0
-254 256 0
256 34 -60 0
254 -256 -34 0
254 -256 60 0
-255 257 0
-254 257 34 -60 0
255 -257 -34 0
255 -257 60 0
254 -257 0
-256 258 0
258 35 -61 0
256 -258 -35 0
256 -258 61 0
-257 259 0
-256 259 35 -61 0
257 -259 -35 0
257 -259 61 0
256 -259 0
-258 260 0
260 36 -62 0
258 -260 -36 0
258 -260 62 0
-259 261 0
-258 261 36 -62 0
259 -261 -36 0
259 -261 62 0
258 -261 0
-260 262 0
262 37 -63 0
260 -262 -37 0
260 -262 63 0
-261 263 0
-260 263 37 -63 0
261 -263 -37 0
261 -263 63 0
260 -263 0
-262 264 0
264 38 -64 0
262 -264 -38 0
262 -264 64 0
-263 265 0
-262 265 38 -64 0
263 -265 -38 0
263 -265 64 0
262 -265 0
-264 266 0
266 39 -65 0
264 -266 -39 0
264 -266 65 0
-265 267 0
-264 267 39 -65 0
265 -267 -39 0
265 -267 65 0
264 -267 0
-217 266 0
-217 -267 0
268 53 -79 0
-268 -53 0
-268 79 0
-268 269 0
269 54 -80 0
268 -269 -54 0
268 -269 80 0
-268 270 54 -80 0
-270 -54 0
-270 80 0
268 -270 0
-269 271 0
271 55 -81 0
269 -271 -55 0
269 -271 81 0
-270 272 0
-269 272 55 -81 0
270 -272 -55 0
270 -272 81 0
269 -272 0
-271 273 0
273 56 -82 0
271 -273 -56 0
271 -273 82 0
-272 274 0
-271 274 56 -82 0
272 -274 -56 0
272 -274 82 0
271 -274 0
-273 275 0
275 57 -83 0
273 -275 -57 0
273 -275 83 0
-274 276 0
-273 276 57 -83 0
274 -276 -57 0
274 -276 83 0
273 -276 0
-275 277 0
277 58 -84 0
275 -277 -58 0
275 -277 84 0
-276 278 0
-275 278 58 -84 0
276 -278 -58 0
276 -278 84 0
275 -278 0
-277 279 0
279 59 -85 0
277 -279 -59 0
277 -279 85 0
-278 280 0
-277 280 59 -85 0
278 -280 -59 0
278 -280 85 0
277 -280 0
-279 281 0
281 60 -86 0
279 -281 -60 0
279 -281 86 0
-280 282 0
-279 282 60 -86 0
280 -282 -60 0
280 -282 86 0
279 -282 0
-281 283 0
283 61 -87 0
281 -283 -61 0
281 -283 87 0
-282 284 0
-281 284 61 -87 0
282 -284 -61 0
282 -284 87 0
281 -284 0
-283 285 0
285 62 -88 0
283 -285 -62 0
283 -285 88 0
-284 286 0
-283 286 62 -88 0
284 -286 -62 0
284 -286 88 0
283 -286 0
-285 287 0
287 63 -89 0
285 -287 -63 0
285 -287 89 0
-286 288 0
-285 288 63 -89 0
286 -288 -63 0
286 -288 89 0
285 -288 0
-287 289 0
289 64 -90 0
287 -289 -64 0
287 -289 90 0
-288 290 0
-287 290 64 -90 0
288 -290 -64 0
288 -290 90 0
287 -290 0
-289 291 0
291 65 -91 0
289 -291 -65 0
289 -291 91 0
-290 292 0
-289 292 65 -91 0
290 -292 -65 0
290 -292 91 0
289 -292 0
-217 291 0
-217 -292 0
293 79 -105 0
-293 -79 0
-293 105 0
-293 294 0
294 80 -106 0
293 -294 -80 0
293 -294 106 0
-293 295 80 -106 0
-295 -80 0
-295 106 0
293 -295 0
-294 296 0
296 81 -107 0
294 -296 -81 0
294 -296 107 0
-295 297 0
-294 297 81 -107 0
295 -297 -81 0
295 -297 107 0
294 -297 0
-296 298 0
298 82 -108 0
296 -298 -82 0
296 -298 108 0
-297 299 0
-296 299 82 -108 0
297 -299 -82 0
297 -299 108 0
296 -299 0
-298 300 0
300 83 -109 0
298 -300 -83 0
298 -300 109 0
-299 301 0
-298 301 83 -109 0
299 -301 -83 0
299 -301 109 0
298 -301 0
-300 302 0
302 84 -110 0
300 -302 -84 0
300 -302 110 0
-301 303 0
-300 303 84 -110 0
301 -303 -84 0
301 -303 110 0
300 -303 0
-302 304 0
304 85 -111 0
302 -304 -85 0
302 -304 111 0
-303 305 0
-302 305 85 -111 0
303 -305 -85 0
303 -305 111 0
302 -305 0
-304 306 0
306 86 -112 0
304 -306 -86 0
304 -306 112 0
-305 307 0
-304 307 86 -112 0
305 -307 -86 0
305 -307 112 0
304 -307 0
-306 308 0
308 87 -113 0
306 -308 -87 0
306 -308 113 0
-307 309 0
-306 309 87 -113 0
307 -309 -87 0
307 -309 113 0
306 -309 0
-308 310 0
310 88 -114 0
308 -310 -88 0
308 -310 114 0
-309 311 0
-308 311 88 -114 0
309 -311 -88 0
309 -311 114 0
308 -311 0
-310 312 0
312 89 -115 0
310 -312 -89 0
310 -312 115 0
-311 313 0
-310 313 89 -115 0
311 -313 -89 0
311 -313 115 0
310 -313 0
-312 314 0
314 90 -116 0
312 -314 -90 0
312 -314 116 0
-313 315 0
-312 315 90 -116 0
313 -315 -90 0
313 -315 116 0
312 -315 0
-314 316 0
316 91 -117 0
314 -316 -91 0
314 -316 117 0
-315 317 0
-314 317 91 -117 0
315 -317 -91 0
315 -317 117 0
314 -317 0
-217 316 0
-217 -317 0
318 105 -131 0
-318 -105 0
-318 131 0
-318 319 0
319 106 -132 0
318 -319 -106 0
318 -319 132 0
-318 320 106 -132 0
-320 -106 0
-320 132 0
318 -320 0
-319 321 0
321 107 -133 0
319 -321 -107 0
319 -321 133 0
-320 322 0
-319 322 107 -133 0
320 -322 -107 0
320 -322 133 0
319 -322 0
-321 323 0
323 108 -134 0
321 -323 -108 0
321 -323 134 0
-322 324 0
-321 324 108 -134 0
322 -324 -108 0
322 -324 134 0
321 -324 0
-323 325 0
325 109 -135 0
323 -325 -109 0
323 -325 135 0
-324 326 0
-323 326 109 -135 0
324 -326 -109 0
324 -326 135 0
323 -326 0
-325 327 0
327 110 -136 0
325 -327 -110 0
325 -327 136 0
-326 328 0
-325 328 110 -136 0
326 -328 -110 0
326 -328 136 0
325 -328 0
-327 329 0
329 111 -137 0
327 -329 -111 0
327 -329 137 0
-328 330 0
-327 330 111 -137 0
328 -330 -111 0
328 -330 137 0
327 -330 0
-329 331 0
331 112 -138 0
329 -331 -112 0
329 -331 138 0
-330 332 0
-329 332 112 -138 0
330 -332 -112 0
330 -332 138 0
329 -332 0
-331 333 0
333 113 -139 0
331 -333 -113 0
331 -333 139 0
-332 334 0
-331 334 113 -139 0
332 -334 -113 0
332 -334 139 0
331 -334 0
-333 335 0
335 114 -140 0
333 -335 -114 0
333 -335 140 0
-334 336 0
-333 336 114 -140 0
334 -336 -114 0
334 -336 140 0
333 -336 0
-335 337 0
337 115 -141 0
335 -337 -115 0
335 -337 141 0
-336 338 0
-335 338 115 -141 0
336 -338 -115 0
336 -338 141 0
335 -338 0
-337 339 0
339 116 -142 0
337 -339 -116 0
337 -339 142 0
-338 340 0
-337 340 116 -142 0
338 -340 -116 0
338 -340 142 0
337 -340 0
-339 341 0
341 117 -143 0
339 -341 -117 0
339 -341 143 0
-340 342 0
-339 342 117 -143 0
340 -342 -117 0
340 -342 143 0
339 -342 0
-217 341 0
-217 -342 0
343 131 -157 0
-343 -131 0
-343 157 0
-343 344 0
344 132 -158 0
343 -344 -132 0
343 -344 158 0
-343 345 132 -158 0
-345 -132 0
-345 158 0
343 -345 0
-344 346 0
346 133 -159 0
344 -346 -133 0
344 -346 159 0
-345 347 0
-344 347 133 -159 0
345 -347 -133 0
345 -347 159 0
344 -347 0
-346 348 0
348 134 -160 0
346 -348 -134 0
346 -348 160 0
-347 349 0
-346 349 134 -160 0
347 -349 -134 0
347 -349 160 0
346 -349 0
-348 350 0
350 135 -161 0
348 -350 -135 0
348 -350 161 0
-349 351 0
-348 351 135 -161 0
349 -351 -135 0
349 -351 161 0
348 -351 0
-350 352 0
352 136 -162 0
350 -352 -136 0
350 -352 162 0
-351 353 0
-350 353 136 -162 0
351 -353 -136 0
351 -353 162 0
350 -353 0
-352 354 0
354 137 -163 0
352 -354 -137 0
352 -354 163 0
-353 355 0
-352 355 137 -163 0
353 -355 -137 0
353 -355 163 0
352 -355 0
-354 356 0
356 138 -164 0
354 -356 -138 0
354 -356 164 0
-355 357 0
-354 357 138 -164 0
355 -357 -138 0
355 -357 164 0
354 -357 0
-356 358 0
358 139 -165 0
356 -358 -139 0
356 -358 165 0
-357 359 0
-356 359 139 -165 0
357 -359 -139 0
357 -359 165 0
356 -359 0
-358 360 0
360 140 -166 0
358 -360 -140 0
358 -360 166 0
-359 361 0
-358 361 140 -166 0
359 -361 -140 0
359 -361 166 0
358 -361 0
-360 362 0
362 141 -167 0
360 -362 -141 0
360 -362 167 0
-361 363 0
-360 363 141 -167 0
361 -363 -141 0
361 -363 167 0
360 -363 0
-362 364 0
364 142 -168 0
362 -364 -142 0
362 -364 168 0
-363 365 0
-362 365 142 -168 0
363 -365 -142 0
363 -365 168 0
362 -365 0
-364 366 0
366 143 -169 0
364 -366 -143 0
364 -366 169 0
-365 367 0
-364 367 143 -169 0
365 -367 -143 0
365 -367 169 0
364 -367 0
-217 366 0
-217 -367 0
-368 14 0
368 -369 15 0
-370 15 0
368 -370 0
369 -371 16 0
370 -372 16 0
369 -372 0
371 -373 17 0
372 -374 17 0
371 -374 0
373 -375 18 0
374 -376 18 0
373 -376 0
375 -377 19 0
376 -378 19 0
375 -378 0
377 -379 20 0
378 -380 20 0
377 -380 0
379 -381 21 0
380 -382 21 0
379 -382 0
381 -383 22 0
382 -384 22 0
381 -384 0
383 -385 23 0
384 -386 23 0
383 -386 0
385 -387 24 0
386 -388 24 0
385 -388 0
387 -389 25 0
388 -390 25 0
387 -390 0
389 -391 26 0
390 -392 26 0
389 -392 0
-393 40 0
393 -394 41 0
-395 41 0
393 -395 0
394 -396 42 0
395 -397 42 0
394 -397 0
396 -398 43 0
397 -399 43 0
396 -399 0
398 -400 44 0
399 -401 44 0
398 -401 0
400 -402 45 0
401 -403 45 0
400 -403 0
402 -404 46 0
403 -405 46 0
402 -405 0
404 -406 47 0
405 -407 47 0
404 -407 0
406 -408 48 0
407 -409 48 0
406 -409 0
408 -410 49 0
409 -411 49 0
408 -411 0
410 -412 50 0
411 -413 50 0
410 -413 0
412 -414 51 0
413 -415 51 0
412 -415 0
414 -416 52 0
415 -417 52 0
414 -417 0
-418 66 0
418 -419 67 0
-420 67 0
418 -420 0
419 -421 68 0
420 -422 68 0
419 -422 0
421 -423 69 0
422 -424 69 0
421 -424 0
423 -425 70 0
424 -426 70 0
423 -426 0
425 -427 71 0
426 -428 71 0
425 -428 0
427 -429 72 0
428 -430 72 0
427 -430 0
429 -431 73 0
430 -432 73 0
429 -432 0
431 -433 74 0
432 -434 74 0
431 -434 0
433 -435 75 0
434 -436 75 0
433 -436 0
435 -437 76 0
436 -438 76 0
435 -438 0
437 -439 77 0
438 -440 77 0
437 -440 0
439 -441 78 0
440 -442 78 0
439 -442 0
-443 92 0
443 -444 93 0
-445 93 0
443 -445 0
444 -446 94 0
445 -447 94 0
444 -447 0
446 -448 95 0
447 -449 95 0
446 -449 0
448 -450 96 0
449 -451 96 0
448 -451 0
450 -452 97 0
451 -453 97 0
450 -453 0
452 -454 98 0
453 -455 98 0
452 -455 0
454 -456 99 0
455 -457 99 0
454 -457 0
456 -458 100 0
457 -459 100 0
456 -459 0
458 -460 101 0
459 -461 101 0
458 -461 0
460 -462 102 0
461 -463 102 0
460 -463 0
462 -464 103 0
463 -465 103 0
462 -465 0
464 -466 104 0
465 -467 104 0
464 -467 0
-468 118 0
468 -469 119 0
-470 119 0
468 -470 0
469 -471 120 0
470 -472 120 0
469 -472 0
471 -473 121 0
472 -474 121 0
471 -474 0
473 -475 122 0
474 -476 122 0
473 -476 0
475 -477 123 0
476 -478 123 0
475 -478 0
477 -479 124 0
478 -480 124 0
477 -480 0
479 -481 125 0
480 -482 125 0
479 -482 0
481 -483 126 0
482 -484 126 0
481 -484 0
483 -485 127 0
484 -486 127 0
483 -486 0
485 -487 128 0
486 -488 128 0
485 -488 0
487 -489 129 0
488 -490 129 0
487 -490 0
489 -491 130 0
490 -492 130 0
489 -492 0
-493 144 0
493 -494 145 0
-495 145 0
493 -495 0
494 -496 146 0
495 -497 146 0
494 -497 0
496 -498 147 0
497 -499 147 0
496 -499 0
498 -500 148 0
499 -501 148 0
498 -501 0
500 -502 149 0
501 -503 149 0
500 -503 0
502 -504 150 0
503 -505 150 0
502 -505 0
504 -506 151 0
505 -507 151 0
504 -507 0
506 -508 152 0
507 -509 152 0
506 -509 0
508 -510 153 0
509 -511 153 0
508 -511 0
510 -512 154 0
511 -513 154 0
510 -513 0
512 -514 155 0
513 -515 155 0
512 -515 0
514 -516 156 0
515 -517 156 0
514 -517 0
1 -14 -179 0
27 -40 -179 0
53 -66 -179 0
79 -92 -179 0
105 -118 -179 0
131 -144 -179 0
2 -15 -180 0
28 -41 -180 0
54 -67 -180 0
80 -93 -180 0
106 -119 -180 0
132 -145 -180 0
3 -16 -181 0
29 -42 -181 0
55 -68 -181 0
81 -94 -181 0
107 -120 -181 0
133 -146 -181 0
4 -17 -182 0
30 -43 -182 0
56 -69 -182 0
82 -95 -182 0
108 -121 -182 0
134 -147 -182 0
5 -18 -183 0
31 -44 -183 0
57 -70 -183 0
83 -96 -183 0
109 -122 -183 0
135 -148 -183 0
6 -19 -184 0
32 -45 -184 0
58 -71 -184 0
84 -97 -184 0
110 -123 -184 0
136 -149 -184 0
7 -20 -185 0
33 -46 -185 0
59 -72 -185 0
85 -98 -185 0
111 -124 -185 0
137 -150 -185 0
8 -21 -186 0
34 -47 -186 0
60 -73 -186 0
86 -99 -186 0
112 -125 -186 0
138 -151 -186 0
9 -22 -187 0
35 -48 -187 0
61 -74 -187 0
87 -100 -187 0
113 -126 -187 0
139 -152 -187 0
10 -23 -188 0
36 -49 -188 0
62 -75 -188 0
88 -101 -188 0
114 -127 -188 0
140 -153 -188 0
11 -24 -189 0
37 -50 -189 0
63 -76 -189 0
89 -102 -189 0
115 -128 -189 0
141 -154 -189 0
12 -25 -190 0
38 -51 -190 0
64 -77 -190 0
90 -103 -190 0
116 -129 -190 0
142 -155 -190 0
13 -26 -191 0
39 -52 -191 0
65 -78 -191 0
91 -104 -191 0
117 -130 -191 0
143 -156 -191 0
-518 179 0
-518 180 0
-518 181 0
518 -179 -180 -181 0
-519 179 0
-519 180 0
-519 183 0
519 -179 -180 -183 0
-520 179 0
-520 180 0
-520 187 0
-520 189 0
-520 190 0
520 -179 -180 -187 -189 -190 0
-521 179 0
-521 180 0
-521 187 0
-521 189 0
-521 190 0
-521 191 0
521 -179 -180 -187 -189 -190 -191 0
-522 179 0
-522 180 0
-522 187 0
-522 189 0
-522 190 0
522 -179 -180 -187 -189 -190 0
-523 179 0
-523 180 0
-523 187 0
-523 189 0
-523 190 0
-523 191 0
523 -179 -180 -187 -189 -190 -191 0
-524 179 0
-524 181 0
524 -179 -181 0
-525 179 0
-525 183 0
525 -179 -183 0
-526 179 0
-526 187 0
-526 189 0
-526 190 0
526 -179 -187 -189 -190 0
-527 179 0
-527 187 0
-527 189 0
-527 190 0
-527 191 0
527 -179 -187 -189 -190 -191 0
-528 179 0
-528 183 0
528 -179 -183 0
-529 179 0
-529 187 0
-529 189 0
-529 190 0
529 -179 -187 -189 -190 0
-530 179 0
-530 187 0
-530 189 0
-530 190 0
-530 191 0
530 -179 -187 -189 -190 -191 0
-531 182 0
-531 180 0
-531 181 0
531 -182 -180 -181 0
-532 182 0
-532 181 0
532 -182 -181 0
-533 182 0
-533 183 0
533 -182 -183 0
-534 182 0
-534 187 0
-534 189 0
-534 190 0
534 -182 -187 -189 -190 0
-535 182 0
-535 187 0
-535 189 0
-535 190 0
-535 191 0
535 -182 -187 -189 -190 -191 0
-536 182 0
-536 183 0
536 -182 -183 0
-537 182 0
-537 187 0
-537 189 0
-537 190 0
537 -182 -187 -189 -190 0
-538 182 0
-538 187 0
-538 189 0
-538 190 0
-538 191 0
538 -182 -187 -189 -190 -191 0
-539 179 0
-539 180 0
-539 181 0
539 -179 -180 -181 0
-540 179 0
-540 180 0
-540 183 0
540 -179 -180 -183 0
-541 179 0
-541 180 0
-541 187 0
-541 189 0
-541 190 0
541 -179 -180 -187 -189 -190 0
-542 179 0
-542 180 0
-542 187 0
-542 189 0
-542 190 0
-542 191 0
542 -179 -180 -187 -189 -190 -191 0
-543 179 0
-543 180 0
-543 187 0
-543 189 0
-543 190 0
543 -179 -180 -187 -189 -190 0
-544 179 0
-544 180 0
-544 187 0
-544 189 0
-544 190 0
-544 191 0
544 -179 -180 -187 -189 -190 -191 0
-545 179 0
-545 181 0
545 -179 -181 0
-546 179 0
-546 183 0
546 -179 -183 0
-547 179 0
-547 187 0
-547 189 0
-547 190 0
547 -179 -187 -189 -190 0
-548 179 0
-548 187 0
-548 189 0
-548 190 0
-548 191 0
548 -179 -187 -189 -190 -191 0
-549 179 0
-549 183 0
549 -179 -183 0
-550 179 0
-550 187 0
-550 189 0
-550 190 0
550 -179 -187 -189 -190 0
-551 179 0
-551 187 0
-551 189 0
-551 190 0
-551 191 0
551 -179 -187 -189 -190 -191 0
-552 182 0
-552 179 0
-552 180 0
-552 181 0
552 -182 -179 -180 -181 0
-553 182 0
-553 179 0
-553 180 0
-553 183 0
553 -182 -179 -180 -183 0
-554 182 0
-554 179 0
-554 180 0
-554 187 0
-554 189 0
-554 190 0
554 -182 -179 -180 -187 -189 -190 0
-555 182 0
-555 179 0
-555 180 0
-555 187 0
-555 189 0
-555 190 0
-555 191 0
555 -182 -179 -180 -187 -189 -190 -191 0
-556 182 0
-556 179 0
-556 180 0
-556 187 0
-556 189 0
-556 190 0
556 -182 -179 -180 -187 -189 -190 0
-557 182 0
-557 179 0
-557 180 0
-557 187 0
-557 189 0
-557 190 0
-557 191 0
557 -182 -179 -180 -187 -189 -190 -191 0
-558 182 0
-558 180 0
-558 181 0
558 -182 -180 -181 0
-559 182 0
-559 181 0
559 -182 -181 0
-560 182 0
-560 183 0
560 -182 -183 0
-561 182 0
-561 187 0
-561 189 0
-561 190 0
561 -182 -187 -189 -190 0
-562 182 0
-562 187 0
-562 189 0
-562 190 0
-562 191 0
562 -182 -187 -189 -190 -191 0
-563 182 0
-563 183 0
563 -182 -183 0
-564 182 0
-564 187 0
-564 189 0
-564 190 0
564 -182 -187 -189 -190 0
-565 182 0
-565 187 0
-565 189 0
-565 190 0
-565 191 0
565 -182 -187 -189 -190 -191 0
-566 184 0
-566 182 0
-566 179 0
-566 180 0
-566 181 0
566 -184 -182 -179 -180 -181 0
-567 184 0
-567 182 0
-567 179 0
-567 180 0
-567 183 0
567 -184 -182 -179 -180 -183 0
-568 184 0
-568 182 0
-568 179 0
-568 180 0
-568 187 0
-568 189 0
-568 190 0
568 -184 -182 -179 -180 -187 -189 -190 0
-569 184 0
-569 182 0
-569 179 0
-569 180 0
-569 187 0
-569 189 0
-569 190 0
-569 191 0
569 -184 -182 -179 -180 -187 -189 -190 -191 0
-570 184 0
-570 182 0
-570 179 0
-570 180 0
-570 187 0
-570 189 0
-570 190 0
570 -184 -182 -179 -180 -187 -189 -190 0
-571 184 0
-571 182 0
-571 179 0
-571 180 0
-571 187 0
-571 189 0
-571 190 0
-571 191 0
571 -184 -182 -179 -180 -187 -189 -190 -191 0
-572 184 0
-572 182 0
-572 180 0
-572 181 0
572 -184 -182 -180 -181 0
-573 184 0
-573 182 0
-573 181 0
573 -184 -182 -181 0
-574 184 0
-574 182 0
-574 183 0
574 -184 -182 -183 0
-575 184 0
-575 182 0
-575 187 0
-575 189 0
-575 190 0
575 -184 -182 -187 -189 -190 0
-576 184 0
-576 182 0
-576 187 0
-576 189 0
-576 190 0
-576 191 0
576 -184 -182 -187 -189 -190 -191 0
-577 184 0
-577 182 0
-577 183 0
577 -184 -182 -183 0
-578 184 0
-578 182 0
-578 187 0
-578 189 0
-578 190 0
578 -184 -182 -187 -189 -190 0
-579 184 0
-579 182 0
-579 187 0
-579 189 0
-579 190 0
-579 191 0
579 -184 -182 -187 -189 -190 -191 0
-580 185 0
-580 186 0
-580 180 0
-580 181 0
580 -185 -186 -180 -181 0
-581 185 0
-581 186 0
-581 181 0
581 -185 -186 -181 0
-582 185 0
-582 186 0
-582 183 0
582 -185 -186 -183 0
-583 185 0
-583 186 0
-583 183 0
583 -185 -186 -183 0
-584 185 0
-584 186 0
-584 187 0
-584 181 0
584 -185 -186 -187 -181 0
-585 185 0
-585 186 0
-585 187 0
-585 183 0
585 -185 -186 -187 -183 0
-586 185 0
-586 186 0
-586 187 0
-586 189 0
-586 190 0
586 -185 -186 -187 -189 -190 0
-587 185 0
-587 186 0
-587 187 0
-587 189 0
-587 190 0
-587 191 0
587 -185 -186 -187 -189 -190 -191 0
-588 188 0
-588 186 0
-588 180 0
-588 181 0
588 -188 -186 -180 -181 0
-589 188 0
-589 186 0
-589 181 0
589 -188 -186 -181 0
-590 188 0
-590 186 0
-590 183 0
590 -188 -186 -183 0
-591 188 0
-591 186 0
-591 183 0
591 -188 -186 -183 0
-592 188 0
-592 186 0
-592 187 0
-592 181 0
592 -188 -186 -187 -181 0
-593 188 0
-593 186 0
-593 187 0
-593 183 0
593 -188 -186 -187 -183 0
-594 188 0
-594 186 0
-594 187 0
-594 189 0
-594 190 0
594 -188 -186 -187 -189 -190 0
-595 188 0
-595 186 0
-595 187 0
-595 189 0
-595 190 0
-595 191 0
595 -188 -186 -187 -189 -190 -191 0
-596 518 519 520 521 522 523 524 525 526 527 528 529 530 531 532 533 534 535 536 537 538 539 540 541 542 543 544 545 546 547 548 549 550 551 552 553 554 555 556 557 558 559 560 561 562 563 564 565 566 567 568 569 570 571 572 573 574 575 576 577 578 579 580 581 582 583 584 585 586 587 588 589 590 591 592 593 594 595 0
-392 -217 0
-417 -217 0
-442 -217 0
-467 -217 0
-492 -217 0
-517 -217 0
217 392 417 442 467 492 517 0
596 -217 0
